x = 16;
y = 10;
c = 64;
n = 71;

p = [57  68  24  66  73  11  100  33  77  28  96  17  11  15  44  12  11  68  46  59  62  73  21  30  22  28  68  19  77  88  36  29  34  12  25  22  85  89  80  36  36  38  51  64  13  45  87  19  49  43  95  43  41  90  59  71  41  61  37  15  55  92  80  38  80  99  95  54  89  83  33];
w = [3  6  8  9  10  3  1  1  3  3  8  10  5  2  10  8  1  6  5  6  5  1  5  2  5  5  10  7  9  2  2  8  4  8  1  7  4  9  3  7  10  3  9  5  7  10  3  3  3  3  8  8  8  4  1  3  5  9  7  4  4  4  5  1  1  10  3  2  4  9  3];
s = [7  10  6  4  2  1  6  2  2  1  2  7  8  6  10  3  3  2  7  3  1  10  3  9  6  3  8  10  9  3  7  7  1  8  5  9  6  6  10  9  2  4  8  2  7  7  5  6  6  5  2  10  2  3  5  5  10  1  5  10  2  7  8  3  7  6  2  1  5  8  4];
